NAME 
ROWS
 N  OBJ
 L  ULC[0]  
 L  ULC[1]  
 L  ULC[2]  
 L  ULC[3]  
 L  ULC[4]  
 L  LLC[0]  
 L  LLC[1]  
 L  LLC[2]  
 L  LLC[3]  
 L  LLC[4]  
COLUMNS
    MARKER    'MARKER'                 'INTORG'
    X[0]      OBJ       10
    X[0]      ULC[0]    90
    X[0]      ULC[1]    70
    X[0]      ULC[2]    86
    X[0]      ULC[3]    49
    X[0]      ULC[4]    38
    X[0]      LLC[0]    58
    X[0]      LLC[1]    94
    X[0]      LLC[2]    60
    X[0]      LLC[3]    74
    X[0]      LLC[4]    4
    X[1]      OBJ       49
    X[1]      ULC[0]    22
    X[1]      ULC[1]    64
    X[1]      ULC[2]    84
    X[1]      ULC[3]    82
    X[1]      ULC[4]    63
    X[1]      LLC[0]    5
    X[1]      LLC[1]    2
    X[1]      LLC[2]    10
    X[1]      LLC[3]    63
    X[1]      LLC[4]    15
    X[2]      OBJ       -26
    X[2]      ULC[0]    82
    X[2]      ULC[1]    8
    X[2]      ULC[2]    65
    X[2]      ULC[3]    38
    X[2]      ULC[4]    18
    X[2]      LLC[0]    5
    X[2]      LLC[1]    56
    X[2]      LLC[2]    84
    X[2]      LLC[3]    97
    X[2]      LLC[4]    68
    X[3]      OBJ       43
    X[3]      ULC[0]    58
    X[3]      ULC[1]    39
    X[3]      ULC[2]    90
    X[3]      ULC[3]    63
    X[3]      ULC[4]    2
    X[3]      LLC[0]    86
    X[3]      LLC[2]    43
    X[3]      LLC[3]    28
    X[3]      LLC[4]    35
    X[4]      OBJ       21
    X[4]      ULC[0]    13
    X[4]      ULC[1]    49
    X[4]      ULC[2]    25
    X[4]      ULC[3]    59
    X[4]      ULC[4]    90
    X[4]      LLC[0]    92
    X[4]      LLC[1]    63
    X[4]      LLC[2]    19
    X[4]      LLC[3]    45
    X[4]      LLC[4]    2
    X[5]      OBJ       -20
    X[5]      ULC[0]    67
    X[5]      ULC[1]    91
    X[5]      ULC[2]    80
    X[5]      ULC[3]    96
    X[5]      ULC[4]    93
    X[5]      LLC[0]    49
    X[5]      LLC[1]    54
    X[5]      LLC[2]    73
    X[5]      LLC[3]    92
    X[5]      LLC[4]    73
    X[6]      OBJ       -21
    X[6]      ULC[0]    74
    X[6]      ULC[1]    97
    X[6]      ULC[2]    92
    X[6]      ULC[3]    33
    X[6]      ULC[4]    81
    X[6]      LLC[0]    84
    X[6]      LLC[1]    4
    X[6]      LLC[2]    34
    X[6]      LLC[3]    1
    X[6]      LLC[4]    58
    X[7]      OBJ       24
    X[7]      ULC[0]    79
    X[7]      ULC[1]    97
    X[7]      ULC[2]    98
    X[7]      ULC[3]    43
    X[7]      ULC[4]    8
    X[7]      LLC[0]    44
    X[7]      LLC[1]    60
    X[7]      LLC[2]    85
    X[7]      LLC[3]    22
    X[7]      LLC[4]    40
    X[8]      OBJ       -19
    X[8]      ULC[0]    47
    X[8]      ULC[1]    12
    X[8]      ULC[2]    77
    X[8]      ULC[3]    30
    X[8]      ULC[4]    78
    X[8]      LLC[0]    16
    X[8]      LLC[1]    27
    X[8]      LLC[2]    32
    X[8]      LLC[3]    100
    X[8]      LLC[4]    52
    X[9]      OBJ       -3
    X[9]      ULC[0]    92
    X[9]      ULC[1]    90
    X[9]      ULC[2]    26
    X[9]      ULC[3]    34
    X[9]      ULC[4]    10
    X[9]      LLC[0]    28
    X[9]      LLC[1]    48
    X[9]      LLC[2]    93
    X[9]      LLC[3]    7
    X[9]      LLC[4]    27
    Y[0]      OBJ       12
    Y[0]      ULC[0]    58
    Y[0]      ULC[1]    36
    Y[0]      ULC[2]    24
    Y[0]      ULC[3]    10
    Y[0]      ULC[4]    57
    Y[0]      LLC[0]    78
    Y[0]      LLC[1]    43
    Y[0]      LLC[2]    54
    Y[0]      LLC[3]    32
    Y[0]      LLC[4]    90
    Y[1]      OBJ       -38
    Y[1]      ULC[0]    45
    Y[1]      ULC[1]    57
    Y[1]      ULC[2]    92
    Y[1]      ULC[3]    11
    Y[1]      ULC[4]    85
    Y[1]      LLC[0]    38
    Y[1]      LLC[1]    77
    Y[1]      LLC[2]    16
    Y[1]      LLC[3]    84
    Y[1]      LLC[4]    83
    Y[2]      ULC[0]    35
    Y[2]      ULC[1]    7
    Y[2]      ULC[2]    11
    Y[2]      ULC[4]    65
    Y[2]      LLC[0]    52
    Y[2]      LLC[1]    7
    Y[2]      LLC[3]    97
    Y[2]      LLC[4]    19
    Y[3]      OBJ       23
    Y[3]      ULC[0]    39
    Y[3]      ULC[1]    51
    Y[3]      ULC[2]    98
    Y[3]      ULC[3]    73
    Y[3]      ULC[4]    68
    Y[3]      LLC[0]    87
    Y[3]      LLC[1]    35
    Y[3]      LLC[2]    59
    Y[3]      LLC[3]    16
    Y[3]      LLC[4]    11
    Y[4]      OBJ       36
    Y[4]      ULC[0]    7
    Y[4]      ULC[1]    35
    Y[4]      ULC[2]    58
    Y[4]      ULC[3]    13
    Y[4]      ULC[4]    88
    Y[4]      LLC[0]    75
    Y[4]      LLC[1]    11
    Y[4]      LLC[2]    100
    Y[4]      LLC[3]    55
    Y[4]      LLC[4]    4
    Y[5]      OBJ       -22
    Y[5]      ULC[0]    33
    Y[5]      ULC[1]    71
    Y[5]      ULC[2]    42
    Y[5]      ULC[3]    77
    Y[5]      ULC[4]    77
    Y[5]      LLC[0]    36
    Y[5]      LLC[1]    17
    Y[5]      LLC[2]    51
    Y[5]      LLC[3]    14
    Y[5]      LLC[4]    96
    Y[6]      OBJ       -1
    Y[6]      ULC[0]    80
    Y[6]      ULC[1]    34
    Y[6]      ULC[3]    25
    Y[6]      ULC[4]    45
    Y[6]      LLC[0]    32
    Y[6]      LLC[1]    26
    Y[6]      LLC[2]    21
    Y[6]      LLC[3]    2
    Y[6]      LLC[4]    63
    Y[7]      OBJ       -35
    Y[7]      ULC[0]    42
    Y[7]      ULC[1]    24
    Y[7]      ULC[2]    16
    Y[7]      ULC[3]    16
    Y[7]      ULC[4]    27
    Y[7]      LLC[0]    58
    Y[7]      LLC[1]    64
    Y[7]      LLC[2]    72
    Y[7]      LLC[3]    10
    Y[7]      LLC[4]    72
    Y[8]      OBJ       -8
    Y[8]      ULC[0]    50
    Y[8]      ULC[1]    58
    Y[8]      ULC[2]    83
    Y[8]      ULC[3]    17
    Y[8]      ULC[4]    1
    Y[8]      LLC[0]    60
    Y[8]      LLC[1]    6
    Y[8]      LLC[2]    84
    Y[8]      LLC[3]    70
    Y[8]      LLC[4]    49
    Y[9]      OBJ       -17
    Y[9]      ULC[0]    63
    Y[9]      ULC[1]    54
    Y[9]      ULC[2]    25
    Y[9]      ULC[3]    21
    Y[9]      ULC[4]    15
    Y[9]      LLC[0]    11
    Y[9]      LLC[1]    53
    Y[9]      LLC[2]    75
    Y[9]      LLC[3]    62
    Y[9]      LLC[4]    75
    MARKER    'MARKER'                 'INTEND'
RHS
    RHS1      ULC[0]    807
    RHS1      ULC[1]    783
    RHS1      ULC[2]    879
    RHS1      ULC[3]    592
    RHS1      ULC[4]    756
    RHS1      LLC[0]    723
    RHS1      LLC[1]    433
    RHS1      LLC[2]    846
    RHS1      LLC[3]    565
    RHS1      LLC[4]    735
BOUNDS
 BV BND1      X[0]    
 BV BND1      X[1]    
 BV BND1      X[2]    
 BV BND1      X[3]    
 BV BND1      X[4]    
 BV BND1      X[5]    
 BV BND1      X[6]    
 BV BND1      X[7]    
 BV BND1      X[8]    
 BV BND1      X[9]    
 BV BND1      Y[0]    
 BV BND1      Y[1]    
 BV BND1      Y[2]    
 BV BND1      Y[3]    
 BV BND1      Y[4]    
 BV BND1      Y[5]    
 BV BND1      Y[6]    
 BV BND1      Y[7]    
 BV BND1      Y[8]    
 BV BND1      Y[9]    
ENDATA
